NAME          COPTPROB
OBJSENSE
  MIN
ROWS
 N  __OBJ___
 L  C183    
 L  C415    
 L  C448    
 L  C457    
 L  C582    
COLUMNS
    MARKER    'MARKER'                 'INTORG'
    x49       __OBJ___  -1
    x49       C183      1
    x49       C448      1
    x135      __OBJ___  -1
    x135      C183      1
    x135      C582      1
    x182      __OBJ___  -1
    x182      C415      1
    x182      C582      1
    x253      __OBJ___  -1
    x253      C415      1
    x253      C457      1
    x285      __OBJ___  -1
    x285      C448      1
    x285      C457      1
    MARKER    'MARKER'                 'INTEND'
RHS
    RHS       __OBJ___  172
    RHS       C183      1
    RHS       C415      1
    RHS       C448      1
    RHS       C457      1
    RHS       C582      1
BOUNDS
 UP BOUND     x49       1
 UP BOUND     x135      1
 UP BOUND     x182      1
 UP BOUND     x253      1
 UP BOUND     x285      1
ENDATA
